SPARKNaCl/why3-cvc5/sparknacl-car.adb_61_30_range_check_1.smt2
;; produced by cvc5.drv ;;
(set-logic ALL)
(set-info :smt-lib-version 2.6)
;;; generated by SMT-LIB2 driver
;;; SMT-LIB2 driver: bit-vectors, common part
;;; SMT-LIB2: integer arithmetic
(define-fun __cdiv ((x Int) (y Int)) Int (ite (>= x 0) (div x y) (- (div (- x) y))))
(define-fun __cmod ((x Int) (y Int)) Int (ite (>= x 0) (mod x y) (- (mod (- x) y))))
(declare-sort gf32_any_limb 0)

;; "gf32_any_limb'int"
(declare-fun gf32_any_limbqtint (gf32_any_limb) Int)

;; "gf32_any_limb'axiom"
(assert
  (forall ((i gf32_any_limb))
    (and
      (<= (- 65536) (gf32_any_limbqtint i))
      (<= (gf32_any_limbqtint i) 132051011))))

;; "in_range"
(define-fun in_range ((x Int)) Bool
  (and (<= (- 65536) x) (<= x 132051011)))

(declare-sort map1 0)

;; "has_bounds"
(declare-fun has_bounds (map1
  Int
  Int) Bool)

(declare-const g map1)

;; "to_rep"
(define-fun to_rep ((x gf32_any_limb)) Int
  (gf32_any_limbqtint x))

;; "of_rep"
(declare-fun of_rep (Int) gf32_any_limb)

;; "inversion_axiom"
(assert
  (forall ((x gf32_any_limb))
    (! (= (of_rep (to_rep x)) x) :pattern ((to_rep x)) )))

;; "range_axiom"
(assert
  (forall ((x gf32_any_limb))
    (! (in_range (to_rep x)) :pattern ((to_rep x)) )))

;; "coerce_axiom"
(assert
  (forall ((x Int))
    (! (=> (in_range x) (= (to_rep (of_rep x)) x)) :pattern ((to_rep
                                                               (of_rep x))) )))

(declare-sort map2 0)

;; "has_bounds"
(declare-fun has_bounds1 (map2
  Int
  Int) Bool)

;; "get"
(declare-fun get (map2
  Int) gf32_any_limb)

(declare-const x map2)

(declare-const i Int)

;; "in_range"
(define-fun in_range1 ((x1 Int)) Bool
  (and (<= 0 x1) (<= x1 15)))

;; "in_range"
(define-fun in_range2 ((x1 Int)) Bool
  (and (<= 0 x1) (<= x1 65535)))

;; "dynamic_invariant"
(define-fun dynamic_invariant ((temp___expr_258 map2) (temp___is_init_254 Bool) (temp___skip_constant_255 Bool) (temp___do_toplevel_256 Bool) (temp___do_typ_inv_257 Bool)) Bool
  (and
    (=>
      (= temp___is_init_254 true)
      (=>
        (= temp___do_toplevel_256 true)
        (and
          (let ((temp___261 (to_rep (get temp___expr_258 0))))
            (and (<= (- 38) temp___261) (<= temp___261 65573)))
          (forall ((k Int))
            (=>
              (and (<= 1 k) (<= k 15))
              (in_range2 (to_rep (get temp___expr_258 k))))))))
    (has_bounds1 temp___expr_258 0 15)))

;; Goal "def'vc"
;; File "sparknacl-car.adb", line 48, characters 0-0
(assert
  (not
  (=>
    (has_bounds g 0 15)
    (=>
      (dynamic_invariant x true false true true)
      (=> (in_range1 i) (=> (<= 1 i) (<= 0 1)))))))

(check-sat)
